c This is QMaxSAT 2017 based on 14.07
c This is Glucose 3.0
c This is MiniSat 2.2.0
c WARNING: for repeatability, setting FPU to use double precision
c card = mrwto, comp = 0, pmodel = 0, narr = 4, mct = 29, verb = 0
cr firstCPXsol 0 0 0
c top = 167313
c |  Number of variables:    3834800                                          |
c |  Number of clauses:      274992852                                        |
c |  Weight of hard clauses: 167313                                           |
c |  Number of soft clauses: 3248                                             |
c |  Number of unit soft clauses: 3248                                        |
c |  Maximum Cardinality (by unit): 669248       (669248      )               |
c last restart ## conflicts  :  42 361316 
o 1614 | cpuTime 37.2472 s
c Sum of weights = 167312
c A number of soft clauses remained = 812
c MRWTO encoding for Pseudo-Boolean Constraints
c sizeMax=1614
c No.0 Divisor=12	generated by pow1
c No.1 Divisor=12	generated by pow1
c No.2 Divisor=12	generated by pow1
c p0= 12	p1= 12	p2= 12	
c number of digits = 4
c linkingVar[0].size = 12, linkingVar[1].size = 12, linkingVar[2].size = 12, linkingVar[3].size = 1, 
c Pseudo-Boolean Constraints: 19135 variables and 188610 clauses
c Sum of weights = 167312
c A number of soft clauses remained = 812
c MRWTO encoding for Pseudo-Boolean Constraints
c sizeMax=1614
c No.0 Divisor=12	generated by pow1
c No.1 Divisor=12	generated by pow1
c No.2 Divisor=12	generated by pow1
c p0= 12	p1= 12	p2= 12	
c number of digits = 4
c linkingVar[0].size = 12, linkingVar[1].size = 12, linkingVar[2].size = 12, linkingVar[3].size = 1, 
c Pseudo-Boolean Constraints: 19135 variables and 188610 clauses
c Sum of weights = 167312
c A number of soft clauses remained = 812
c MRWTO encoding for Pseudo-Boolean Constraints
c sizeMax=1614
c No.0 Divisor=12	generated by pow1
c No.1 Divisor=12	generated by pow1
c No.2 Divisor=12	generated by pow1
c p0= 12	p1= 12	p2= 12	
c number of digits = 4
c linkingVar[0].size = 12, linkingVar[1].size = 12, linkingVar[2].size = 12, linkingVar[3].size = 1, 
c Pseudo-Boolean Constraints: 19135 variables and 188610 clauses
c Sum of weights = 167312
c A number of soft clauses remained = 812
c MRWTO encoding for Pseudo-Boolean Constraints
c sizeMax=1614
c No.0 Divisor=12	generated by pow1
c No.1 Divisor=12	generated by pow1
c No.2 Divisor=12	generated by pow1
c p0= 12	p1= 12	p2= 12	
c number of digits = 4
c linkingVar[0].size = 12, linkingVar[1].size = 12, linkingVar[2].size = 12, linkingVar[3].size = 1, 
c Pseudo-Boolean Constraints: 19135 variables and 188610 clauses
s UNKNOWN
c Search is stopped by a limit (maybe time-limit)
cr positiVarArr: [ | 2@1(1->2) | 32@1(2->3) | 62@1(3->4) | 92@1(4->5) | 122@1(5->6) | 152@1(6->7) | 182@1(7->8) | 204@1(8->1) | 850@2(1->9) | 1083@2(9->10) | 1113@2(10->11) | 1143@2(11->12) | 1173@2(12->13) | 1203@2(13->14) | 1233@2(14->15) | 1248@2(15->1) | 1698@3(1->16) | 2134@3(16->17) | 2164@3(17->18) | 2194@3(18->19) | 2224@3(19->20) | 2254@3(20->21) | 2284@3(21->22) | 2292@3(22->1) | 2546@4(1->23) | 3185@4(23->24) | 3215@4(24->25) | 3245@4(25->26) | 3275@4(26->27) | 3305@4(27->28) | 3335@4(28->29) | 3336@4(29->1) | ]
cr the 1-th chain: [ 1->2->3->4->5->6->7->8->1 ] (#non-depot=7) {#cumul.=8}
cr the 2-th chain: [ 1->9->10->11->12->13->14->15->1 ] (#non-depot=7) {#cumul.=15}
cr the 3-th chain: [ 1->16->17->18->19->20->21->22->1 ] (#non-depot=7) {#cumul.=22}
cr the 4-th chain: [ 1->23->24->25->26->27->28->29->1 ] (#non-depot=7) {#cumul.=29}
c Latest Answer = 0 by 1 loops
c restarts              : 2832
c conflicts             : 464635         (129 /sec)
c decisions             : 8442553        (0.00 % random) (2348 /sec)
c propagations          : 13986283815    (3890035 /sec)
c conflict literals     : 47314747       (11.73 % deleted)
c Memory used           : 19591.00 MB
c CPU time              : 3595.41 s
